(declare-fun or.cond_7_54 () (_ BitVec 1))
(declare-fun cmp30.i.i_7_52 () (_ BitVec 1))
(declare-fun spec.select_7_50 () (_ BitVec 1))
(declare-fun src_reg1.sroa.42.0.copyload_7_41 () (_ BitVec 64))
(declare-fun cmp19.i.i_7_48 () (_ BitVec 1))
(declare-fun or.cond31_7_47 () (_ BitVec 1))
(declare-fun src_reg1.sroa.34.0.copyload_7_40 () (_ BitVec 64))
(declare-fun cmp16.i.i_7_45 () (_ BitVec 1))
(declare-fun tobool.not.i1.i.i_7_44 () (_ BitVec 1))
(declare-fun src_reg1.sroa.31.0.copyload_7_39 () (_ BitVec 64))
(declare-fun src_reg1.sroa.27.0.copyload_7_38 () (_ BitVec 64))
(declare-fun src_reg1.sroa.13.0.copyload_7_42 () (_ BitVec 64))
(declare-fun src_reg_7_21 () (_ BitVec 64))
(declare-fun src_reg_7_25 () (_ BitVec 64))
(declare-fun src_reg_7_24 () (_ BitVec 64))
(declare-fun src_reg_7_23 () (_ BitVec 64))
(declare-fun src_reg_7_22 () (_ BitVec 64))
(declare-fun src_reg_7_35 () (_ BitVec 8))
(declare-fun src_reg_7_34 () (_ BitVec 32))
(declare-fun src_reg_7_33 () (_ BitVec 32))
(declare-fun src_reg_7_32 () (_ BitVec 32))
(declare-fun src_reg_7_31 () (_ BitVec 32))
(declare-fun src_reg_7_30 () (_ BitVec 32))
(declare-fun src_reg_7_29 () (_ BitVec 32))
(declare-fun src_reg_7_28 () (_ BitVec 32))
(declare-fun src_reg_7_27 () (_ BitVec 32))
(declare-fun src_reg_7_26 () (_ BitVec 32))
(declare-fun src_reg_7_20 () (_ BitVec 64))
(declare-fun src_reg_7_19 () (_ BitVec 32))
(declare-fun src_reg_7_18 () (_ BitVec 32))
(declare-fun dst_reg_7_17 () (_ BitVec 8))
(declare-fun dst_reg_7_16 () (_ BitVec 32))
(declare-fun dst_reg_7_15 () (_ BitVec 32))
(declare-fun dst_reg_7_14 () (_ BitVec 32))
(declare-fun dst_reg_7_13 () (_ BitVec 32))
(declare-fun dst_reg_7_12 () (_ BitVec 32))
(declare-fun dst_reg_7_11 () (_ BitVec 32))
(declare-fun dst_reg_7_10 () (_ BitVec 32))
(declare-fun dst_reg_7_9 () (_ BitVec 32))
(declare-fun dst_reg_7_8 () (_ BitVec 32))
(declare-fun dst_reg_7_7 () (_ BitVec 64))
(declare-fun dst_reg_7_6 () (_ BitVec 64))
(declare-fun dst_reg_7_5 () (_ BitVec 64))
(declare-fun dst_reg_7_4 () (_ BitVec 64))
(declare-fun dst_reg_7_3 () (_ BitVec 64))
(declare-fun dst_reg_7_2 () (_ BitVec 64))
(declare-fun dst_reg_7_1 () (_ BitVec 32))
(declare-fun dst_reg_7_0 () (_ BitVec 32))
(declare-fun and.i.i.i.i.i788.i30_7_96 () (_ BitVec 64))
(declare-fun cond35.i.i.i841.i_7_107 () (_ BitVec 64))
(declare-fun shr4.i.i_7_82 () (_ BitVec 64))
(declare-fun cmp31.i11.i.i840.i_7_106 () (_ BitVec 1))
(declare-fun shr.i.i773.i_7_77 () (_ BitVec 64))
(declare-fun cond23.i.i.i836.i_7_105 () (_ BitVec 64))
(declare-fun shr.i778.i_7_80 () (_ BitVec 64))
(declare-fun cmp19.i9.i.i835.i_7_104 () (_ BitVec 1))
(declare-fun and7.i.i.i829.i_7_102 () (_ BitVec 64))
(declare-fun or8.i.i.i830.i_7_103 () (_ BitVec 64))
(declare-fun shr5.i.i774.i_7_78 () (_ BitVec 64))
(declare-fun and.i4.i.i823.i_7_99 () (_ BitVec 64))
(declare-fun or.i5.i.i824.i_7_100 () (_ BitVec 64))
(declare-fun conv29.i.i.i814.i_7_97 () (_ BitVec 32))
(declare-fun conv17.i.i.i808.i_7_95 () (_ BitVec 32))
(declare-fun or6.i.i.i802.i_7_93 () (_ BitVec 64))
(declare-fun conv7.i.i.i803.i_7_94 () (_ BitVec 32))
(declare-fun and5.i.i.i801.i_7_92 () (_ BitVec 64))
(declare-fun or.i.i.i795.i_7_89 () (_ BitVec 64))
(declare-fun conv.i.i.i796.i_7_90 () (_ BitVec 32))
(declare-fun and.i.i.i794.i_7_88 () (_ BitVec 64))
(declare-fun i19.i779.i_7_81 () (_ BitVec 64))
(declare-fun i18.i777.i_7_79 () (_ BitVec 64))
(declare-fun sh_prom.i.i772.i_7_76 () (_ BitVec 64))
(declare-fun i15.i771.i_7_74 () (_ BitVec 64))
(declare-fun i13.i769.i_7_73 () (_ BitVec 64))
(declare-fun src_reg_7_179 () (_ BitVec 8))
(declare-fun src_reg_7_143 () (_ BitVec 8))
(declare-fun src_reg_7_178 () (_ BitVec 32))
(declare-fun src_reg_7_142 () (_ BitVec 32))
(declare-fun src_reg_7_177 () (_ BitVec 32))
(declare-fun src_reg_7_141 () (_ BitVec 32))
(declare-fun src_reg_7_176 () (_ BitVec 32))
(declare-fun src_reg_7_140 () (_ BitVec 32))
(declare-fun src_reg_7_175 () (_ BitVec 32))
(declare-fun src_reg_7_139 () (_ BitVec 32))
(declare-fun src_reg_7_174 () (_ BitVec 32))
(declare-fun src_reg_7_138 () (_ BitVec 32))
(declare-fun src_reg_7_173 () (_ BitVec 32))
(declare-fun src_reg_7_137 () (_ BitVec 32))
(declare-fun src_reg_7_172 () (_ BitVec 32))
(declare-fun src_reg_7_136 () (_ BitVec 32))
(declare-fun src_reg_7_171 () (_ BitVec 32))
(declare-fun src_reg_7_135 () (_ BitVec 32))
(declare-fun src_reg_7_170 () (_ BitVec 32))
(declare-fun src_reg_7_134 () (_ BitVec 32))
(declare-fun src_reg_7_169 () (_ BitVec 64))
(declare-fun src_reg_7_133 () (_ BitVec 64))
(declare-fun src_reg_7_168 () (_ BitVec 64))
(declare-fun src_reg_7_132 () (_ BitVec 64))
(declare-fun src_reg_7_167 () (_ BitVec 64))
(declare-fun src_reg_7_131 () (_ BitVec 64))
(declare-fun src_reg_7_166 () (_ BitVec 64))
(declare-fun src_reg_7_130 () (_ BitVec 64))
(declare-fun src_reg_7_165 () (_ BitVec 64))
(declare-fun src_reg_7_129 () (_ BitVec 64))
(declare-fun src_reg_7_164 () (_ BitVec 64))
(declare-fun src_reg_7_128 () (_ BitVec 64))
(declare-fun src_reg_7_163 () (_ BitVec 32))
(declare-fun src_reg_7_127 () (_ BitVec 32))
(declare-fun src_reg_7_162 () (_ BitVec 32))
(declare-fun src_reg_7_126 () (_ BitVec 32))
(declare-fun dst_reg_7_161 () (_ BitVec 8))
(declare-fun dst_reg_7_125 () (_ BitVec 8))
(declare-fun dst_reg_7_160 () (_ BitVec 32))
(declare-fun dst_reg_7_124 () (_ BitVec 32))
(declare-fun dst_reg_7_159 () (_ BitVec 32))
(declare-fun dst_reg_7_123 () (_ BitVec 32))
(declare-fun dst_reg_7_158 () (_ BitVec 32))
(declare-fun dst_reg_7_122 () (_ BitVec 32))
(declare-fun dst_reg_7_157 () (_ BitVec 32))
(declare-fun dst_reg_7_121 () (_ BitVec 32))
(declare-fun dst_reg_7_156 () (_ BitVec 32))
(declare-fun dst_reg_7_120 () (_ BitVec 32))
(declare-fun dst_reg_7_155 () (_ BitVec 32))
(declare-fun dst_reg_7_119 () (_ BitVec 32))
(declare-fun dst_reg_7_154 () (_ BitVec 32))
(declare-fun dst_reg_7_118 () (_ BitVec 32))
(declare-fun dst_reg_7_153 () (_ BitVec 32))
(declare-fun dst_reg_7_117 () (_ BitVec 32))
(declare-fun dst_reg_7_152 () (_ BitVec 32))
(declare-fun dst_reg_7_116 () (_ BitVec 32))
(declare-fun dst_reg_7_151 () (_ BitVec 64))
(declare-fun dst_reg_7_115 () (_ BitVec 64))
(declare-fun dst_reg_7_150 () (_ BitVec 64))
(declare-fun dst_reg_7_114 () (_ BitVec 64))
(declare-fun dst_reg_7_149 () (_ BitVec 64))
(declare-fun dst_reg_7_113 () (_ BitVec 64))
(declare-fun dst_reg_7_148 () (_ BitVec 64))
(declare-fun dst_reg_7_112 () (_ BitVec 64))
(declare-fun dst_reg_7_147 () (_ BitVec 64))
(declare-fun dst_reg_7_111 () (_ BitVec 64))
(declare-fun dst_reg_7_146 () (_ BitVec 64))
(declare-fun dst_reg_7_110 () (_ BitVec 64))
(declare-fun dst_reg_7_145 () (_ BitVec 32))
(declare-fun dst_reg_7_109 () (_ BitVec 32))
(declare-fun dst_reg_7_144 () (_ BitVec 32))
(declare-fun dst_reg_7_108 () (_ BitVec 32))
(assert (let ((a!1 (and (=> (= or.cond_7_54 #b1)
                    (and (= #x00000001 src_reg_7_126)
                         (= src_reg_7_19 src_reg_7_127)
                         (= src_reg_7_20 src_reg_7_128)
                         (= src_reg_7_21 src_reg_7_129)
                         (= src_reg_7_22 src_reg_7_130)
                         (= src_reg_7_23 src_reg_7_131)
                         (= src_reg_7_24 src_reg_7_132)
                         (= src_reg_7_25 src_reg_7_133)
                         (= src_reg_7_26 src_reg_7_134)
                         (= src_reg_7_27 src_reg_7_135)
                         (= src_reg_7_28 src_reg_7_136)
                         (= src_reg_7_29 src_reg_7_137)
                         (= src_reg_7_30 src_reg_7_138)
                         (= src_reg_7_31 src_reg_7_139)
                         (= src_reg_7_32 src_reg_7_140)
                         (= src_reg_7_33 src_reg_7_141)
                         (= src_reg_7_34 src_reg_7_142)
                         (= src_reg_7_35 src_reg_7_143)
                         (= #x00000001 dst_reg_7_108)
                         (= dst_reg_7_1 dst_reg_7_109)
                         (= shr.i.i773.i_7_77 dst_reg_7_110)
                         (= shr5.i.i774.i_7_78 dst_reg_7_111)
                         (= or.i5.i.i824.i_7_100 dst_reg_7_112)
                         (= or8.i.i.i830.i_7_103 dst_reg_7_113)
                         (= cond23.i.i.i836.i_7_105 dst_reg_7_114)
                         (= cond35.i.i.i841.i_7_107 dst_reg_7_115)
                         (= conv.i.i.i796.i_7_90 dst_reg_7_116)
                         (= conv7.i.i.i803.i_7_94 dst_reg_7_117)
                         (= conv17.i.i.i808.i_7_95 dst_reg_7_118)
                         (= conv29.i.i.i814.i_7_97 dst_reg_7_119)
                         (= dst_reg_7_12 dst_reg_7_120)
                         (= dst_reg_7_13 dst_reg_7_121)
                         (= dst_reg_7_14 dst_reg_7_122)
                         (= dst_reg_7_15 dst_reg_7_123)
                         (= dst_reg_7_16 dst_reg_7_124)
                         (= dst_reg_7_17 dst_reg_7_125)))
                (=> (= or.cond_7_54 #b0)
                    (and (= #x00000001 src_reg_7_126)
                         (= src_reg_7_19 src_reg_7_127)
                         (= src_reg_7_20 src_reg_7_128)
                         (= src_reg_7_21 src_reg_7_129)
                         (= src_reg_7_22 src_reg_7_130)
                         (= src_reg_7_23 src_reg_7_131)
                         (= src_reg_7_24 src_reg_7_132)
                         (= src_reg_7_25 src_reg_7_133)
                         (= src_reg_7_26 src_reg_7_134)
                         (= src_reg_7_27 src_reg_7_135)
                         (= src_reg_7_28 src_reg_7_136)
                         (= src_reg_7_29 src_reg_7_137)
                         (= src_reg_7_30 src_reg_7_138)
                         (= src_reg_7_31 src_reg_7_139)
                         (= src_reg_7_32 src_reg_7_140)
                         (= src_reg_7_33 src_reg_7_141)
                         (= src_reg_7_34 src_reg_7_142)
                         (= src_reg_7_35 src_reg_7_143)
                         (= #x00000001 dst_reg_7_108)
                         (= dst_reg_7_1 dst_reg_7_109)
                         (= #x0000000000000000 dst_reg_7_110)
                         (= #xffffffffffffffff dst_reg_7_111)
                         (= #x8000000000000000 dst_reg_7_112)
                         (= #x7fffffffffffffff dst_reg_7_113)
                         (= #x0000000000000000 dst_reg_7_114)
                         (= #xffffffffffffffff dst_reg_7_115)
                         (= #x80000000 dst_reg_7_116)
                         (= #x7fffffff dst_reg_7_117)
                         (= #x00000000 dst_reg_7_118)
                         (= #xffffffff dst_reg_7_119)
                         (= #x00000000 dst_reg_7_120)
                         (= #x00000000 dst_reg_7_121)
                         (= #x00000000 dst_reg_7_122)
                         (= dst_reg_7_15 dst_reg_7_123)
                         (= dst_reg_7_16 dst_reg_7_124)
                         (= #x01 dst_reg_7_125)))
                (= dst_reg_7_108 dst_reg_7_144)
                (= dst_reg_7_109 dst_reg_7_145)
                (= dst_reg_7_110 dst_reg_7_146)
                (= dst_reg_7_111 dst_reg_7_147)
                (= dst_reg_7_112 dst_reg_7_148)
                (= dst_reg_7_113 dst_reg_7_149)
                (= dst_reg_7_114 dst_reg_7_150)
                (= dst_reg_7_115 dst_reg_7_151)
                (= dst_reg_7_116 dst_reg_7_152)
                (= dst_reg_7_117 dst_reg_7_153)
                (= dst_reg_7_118 dst_reg_7_154)
                (= dst_reg_7_119 dst_reg_7_155)
                (= dst_reg_7_120 dst_reg_7_156)
                (= dst_reg_7_121 dst_reg_7_157)
                (= dst_reg_7_122 dst_reg_7_158)
                (= dst_reg_7_123 dst_reg_7_159)
                (= dst_reg_7_124 dst_reg_7_160)
                (= dst_reg_7_125 dst_reg_7_161)
                (= src_reg_7_126 src_reg_7_162)
                (= src_reg_7_127 src_reg_7_163)
                (= src_reg_7_128 src_reg_7_164)
                (= src_reg_7_129 src_reg_7_165)
                (= src_reg_7_130 src_reg_7_166)
                (= src_reg_7_131 src_reg_7_167)
                (= src_reg_7_132 src_reg_7_168)
                (= src_reg_7_133 src_reg_7_169)
                (= src_reg_7_134 src_reg_7_170)
                (= src_reg_7_135 src_reg_7_171)
                (= src_reg_7_136 src_reg_7_172)
                (= src_reg_7_137 src_reg_7_173)
                (= src_reg_7_138 src_reg_7_174)
                (= src_reg_7_139 src_reg_7_175)
                (= src_reg_7_140 src_reg_7_176)
                (= src_reg_7_141 src_reg_7_177)
                (= src_reg_7_142 src_reg_7_178)
                (= src_reg_7_143 src_reg_7_179)))
      (a!2 (=> (= or.cond_7_54 #b1)
               (and (= dst_reg_7_2 i13.i769.i_7_73)
                    (= dst_reg_7_3 i15.i771.i_7_74)
                    (= sh_prom.i.i772.i_7_76
                       (bvand src_reg1.sroa.34.0.copyload_7_40
                              #x00000000000000ff))
                    (= shr.i.i773.i_7_77
                       (bvlshr i13.i769.i_7_73 sh_prom.i.i772.i_7_76))
                    (= shr5.i.i774.i_7_78
                       (bvlshr i15.i771.i_7_74 sh_prom.i.i772.i_7_76))
                    (= dst_reg_7_6 i18.i777.i_7_79)
                    (= shr.i778.i_7_80
                       (bvlshr i18.i777.i_7_79 src_reg1.sroa.42.0.copyload_7_41))
                    (= dst_reg_7_7 i19.i779.i_7_81)
                    (= shr4.i.i_7_82
                       (bvlshr i19.i779.i_7_81 src_reg1.sroa.34.0.copyload_7_40))
                    (= and.i.i.i794.i_7_88
                       (bvand shr5.i.i774.i_7_78 #x0000000080000000))
                    (= or.i.i.i795.i_7_89
                       (bvor and.i.i.i794.i_7_88 shr.i.i773.i_7_77))
                    (= conv.i.i.i796.i_7_90
                       ((_ extract 31 0) or.i.i.i795.i_7_89))
                    (= and5.i.i.i801.i_7_92
                       (bvand shr5.i.i774.i_7_78 #x000000007fffffff))
                    (= or6.i.i.i802.i_7_93
                       (bvor and5.i.i.i801.i_7_92 shr.i.i773.i_7_77))
                    (= conv7.i.i.i803.i_7_94
                       ((_ extract 31 0) or6.i.i.i802.i_7_93))
                    (= conv17.i.i.i808.i_7_95
                       ((_ extract 31 0) shr.i.i773.i_7_77))
                    (= and.i.i.i.i.i788.i30_7_96
                       (bvor shr5.i.i774.i_7_78 shr.i.i773.i_7_77))
                    (= conv29.i.i.i814.i_7_97
                       ((_ extract 31 0) and.i.i.i.i.i788.i30_7_96))
                    (= and.i4.i.i823.i_7_99
                       (bvand shr5.i.i774.i_7_78 #x8000000000000000))
                    (= or.i5.i.i824.i_7_100
                       (bvor and.i4.i.i823.i_7_99 shr.i.i773.i_7_77))
                    (= and7.i.i.i829.i_7_102
                       (bvand shr5.i.i774.i_7_78 #x7fffffffffffffff))
                    (= or8.i.i.i830.i_7_103
                       (bvor and7.i.i.i829.i_7_102 shr.i.i773.i_7_77))
                    (ite (bvugt shr.i778.i_7_80 shr.i.i773.i_7_77)
                         (= cmp19.i9.i.i835.i_7_104 #b1)
                         (= cmp19.i9.i.i835.i_7_104 #b0))
                    (ite (= cmp19.i9.i.i835.i_7_104 #b1)
                         (= cond23.i.i.i836.i_7_105 shr.i778.i_7_80)
                         (= cond23.i.i.i836.i_7_105 shr.i.i773.i_7_77))
                    (ite (bvult shr4.i.i_7_82 and.i.i.i.i.i788.i30_7_96)
                         (= cmp31.i11.i.i840.i_7_106 #b1)
                         (= cmp31.i11.i.i840.i_7_106 #b0))
                    (ite (= cmp31.i11.i.i840.i_7_106 #b1)
                         (= cond35.i.i.i841.i_7_107 shr4.i.i_7_82)
                         (= cond35.i.i.i841.i_7_107 and.i.i.i.i.i788.i30_7_96))))))
  (and (=> (or (= or.cond_7_54 #b1) (= or.cond_7_54 #b0)) a!1)
       a!2
       (= dst_reg_7_0 dst_reg_7_0)
       (= dst_reg_7_1 dst_reg_7_1)
       (= dst_reg_7_2 dst_reg_7_2)
       (= dst_reg_7_3 dst_reg_7_3)
       (= dst_reg_7_4 dst_reg_7_4)
       (= dst_reg_7_5 dst_reg_7_5)
       (= dst_reg_7_6 dst_reg_7_6)
       (= dst_reg_7_7 dst_reg_7_7)
       (= dst_reg_7_8 dst_reg_7_8)
       (= dst_reg_7_9 dst_reg_7_9)
       (= dst_reg_7_10 dst_reg_7_10)
       (= dst_reg_7_11 dst_reg_7_11)
       (= dst_reg_7_12 dst_reg_7_12)
       (= dst_reg_7_13 dst_reg_7_13)
       (= dst_reg_7_14 dst_reg_7_14)
       (= dst_reg_7_15 dst_reg_7_15)
       (= dst_reg_7_16 dst_reg_7_16)
       (= dst_reg_7_17 dst_reg_7_17)
       (= src_reg_7_18 src_reg_7_18)
       (= src_reg_7_19 src_reg_7_19)
       (= src_reg_7_20 src_reg_7_20)
       (= src_reg_7_21 src_reg_7_21)
       (= src_reg_7_22 src_reg_7_22)
       (= src_reg_7_23 src_reg_7_23)
       (= src_reg_7_24 src_reg_7_24)
       (= src_reg_7_25 src_reg_7_25)
       (= src_reg_7_26 src_reg_7_26)
       (= src_reg_7_27 src_reg_7_27)
       (= src_reg_7_28 src_reg_7_28)
       (= src_reg_7_29 src_reg_7_29)
       (= src_reg_7_30 src_reg_7_30)
       (= src_reg_7_31 src_reg_7_31)
       (= src_reg_7_32 src_reg_7_32)
       (= src_reg_7_33 src_reg_7_33)
       (= src_reg_7_34 src_reg_7_34)
       (= src_reg_7_35 src_reg_7_35)
       (= src_reg_7_22 src_reg1.sroa.27.0.copyload_7_38)
       (= src_reg_7_23 src_reg1.sroa.31.0.copyload_7_39)
       (= src_reg_7_24 src_reg1.sroa.34.0.copyload_7_40)
       (= src_reg_7_25 src_reg1.sroa.42.0.copyload_7_41)
       (= src_reg_7_21 src_reg1.sroa.13.0.copyload_7_42)
       (ite (= src_reg1.sroa.13.0.copyload_7_42 #x0000000000000000)
            (= tobool.not.i1.i.i_7_44 #b1)
            (= tobool.not.i1.i.i_7_44 #b0))
       (ite (= src_reg1.sroa.27.0.copyload_7_38
               src_reg1.sroa.31.0.copyload_7_39)
            (= cmp16.i.i_7_45 #b1)
            (= cmp16.i.i_7_45 #b0))
       (ite (= tobool.not.i1.i.i_7_44 #b1)
            (= or.cond31_7_47 cmp16.i.i_7_45)
            (= or.cond31_7_47 #b0))
       (ite (= src_reg1.sroa.34.0.copyload_7_40
               src_reg1.sroa.42.0.copyload_7_41)
            (= cmp19.i.i_7_48 #b1)
            (= cmp19.i.i_7_48 #b0))
       (ite (= or.cond31_7_47 #b1)
            (= spec.select_7_50 cmp19.i.i_7_48)
            (= spec.select_7_50 #b0))
       (ite (bvult src_reg1.sroa.42.0.copyload_7_41 #x0000000000000040)
            (= cmp30.i.i_7_52 #b1)
            (= cmp30.i.i_7_52 #b0))
       (ite (= spec.select_7_50 #b1)
            (= or.cond_7_54 cmp30.i.i_7_52)
            (= or.cond_7_54 #b0)))))

;{"dst_reg":["dst_reg_7_0","dst_reg_7_1",[""],["dst_reg_7_2","dst_reg_7_3"],"dst_reg_7_4","dst_reg_7_5","dst_reg_7_6","dst_reg_7_7","dst_reg_7_8","dst_reg_7_9","dst_reg_7_10","dst_reg_7_11","dst_reg_7_12","dst_reg_7_13","","","dst_reg_7_14","dst_reg_7_15","dst_reg_7_16"],"src_reg":["src_reg_7_18","src_reg_7_19",[""],["src_reg_7_20","src_reg_7_21"],"src_reg_7_22","src_reg_7_23","src_reg_7_24","src_reg_7_25","src_reg_7_26","src_reg_7_27","src_reg_7_28","src_reg_7_29","src_reg_7_30","src_reg_7_31","","","src_reg_7_32","src_reg_7_33","src_reg_7_34"]}
;{"dst_reg":["dst_reg_7_144","dst_reg_7_145",[""],["dst_reg_7_146","dst_reg_7_147"],"dst_reg_7_148","dst_reg_7_149","dst_reg_7_150","dst_reg_7_151","dst_reg_7_152","dst_reg_7_153","dst_reg_7_154","dst_reg_7_155","dst_reg_7_156","dst_reg_7_157","","","dst_reg_7_158","dst_reg_7_159","dst_reg_7_160"],"src_reg":["src_reg_7_162","src_reg_7_163",[""],["src_reg_7_164","src_reg_7_165"],"src_reg_7_166","src_reg_7_167","src_reg_7_168","src_reg_7_169","src_reg_7_170","src_reg_7_171","src_reg_7_172","src_reg_7_173","src_reg_7_174","src_reg_7_175","","","src_reg_7_176","src_reg_7_177","src_reg_7_178"]}
